TCS_Benchmarks/redos_fix/snort3_output_distinct_2148_2147_9_0.txt
(.*)([0-9A-Za-z]{8})
(.*)([aA][sS][pP][nN]\/[cC][gG][iI]-[bB][iI][nN]\/.*\.[cC][gG][iI]\?)([0-9A-Za-z]{8})